14° run output:
{
    "Function": "kroB750.tsp",
    "Problem dimension": [
        376,
        146,
        325,
        421,
        581,
        335,
        641,
        453,
        557,
        19,
        161,
        640,
        513,
        585,
        394,
        734,
        670,
        220,
        639,
        653,
        691,
        185,
        361,
        3,
        748,
        5,
        143,
        131,
        59,
        509,
        498,
        654,
        627,
        681,
        606,
        123,
        52,
        646,
        145,
        745,
        523,
        130,
        334,
        192,
        628,
        406,
        714,
        17,
        103,
        678,
        176,
        322,
        167,
        461,
        25,
        703,
        313,
        271,
        76,
        78,
        227,
        704,
        356,
        33,
        517,
        617,
        117,
        69,
        363,
        474,
        502,
        154,
        528,
        616,
        697,
        244,
        740,
        632,
        401,
        667,
        700,
        690,
        503,
        549,
        583,
        403,
        380,
        319,
        10,
        254,
        133,
        242,
        330,
        366,
        333,
        102,
        234,
        605,
        562,
        215,
        531,
        326,
        664,
        359,
        357,
        84,
        352,
        579,
        576,
        450,
        8,
        573,
        539,
        37,
        623,
        530,
        107,
        346,
        236,
        492,
        156,
        43,
        458,
        440,
        288,
        546,
        152,
        584,
        67,
        560,
        613,
        83,
        718,
        396,
        184,
        42,
        719,
        89,
        491,
        251,
        211,
        200,
        298,
        299,
        11,
        46,
        534,
        280,
        495,
        571,
        142,
        137,
        554,
        217,
        135,
        347,
        278,
        53,
        433,
        294,
        317,
        577,
        300,
        315,
        728,
        543,
        448,
        225,
        695,
        63,
        213,
        233,
        82,
        487,
        286,
        266,
        239,
        219,
        682,
        198,
        417,
        226,
        493,
        178,
        384,
        694,
        255,
        597,
        205,
        610,
        522,
        173,
        385,
        430,
        51,
        172,
        206,
        507,
        668,
        553,
        293,
        174,
        221,
        310,
        181,
        267,
        164,
        370,
        290,
        292,
        77,
        699,
        329,
        601,
        592,
        645,
        438,
        375,
        456,
        494,
        247,
        179,
        747,
        705,
        287,
        153,
        331,
        586,
        36,
        561,
        510,
        709,
        638,
        118,
        265,
        122,
        66,
        590,
        712,
        277,
        711,
        95,
        658,
        40,
        147,
        689,
        204,
        80,
        521,
        715,
        26,
        250,
        238,
        655,
        642,
        193,
        308,
        447,
        175,
        722,
        463,
        716,
        276,
        386,
        662,
        311,
        57,
        309,
        725,
        720,
        739,
        105,
        44,
        476,
        353,
        412,
        207,
        404,
        676,
        60,
        527,
        619,
        201,
        484,
        490,
        230,
        472,
        737,
        237,
        232,
        270,
        563,
        307,
        611,
        342,
        414,
        97,
        516,
        318,
        124,
        139,
        505,
        365,
        261,
        445,
        485,
        210,
        650,
        224,
        180,
        324,
        631,
        119,
        451,
        542,
        341,
        328,
        100,
        229,
        29,
        157,
        28,
        16,
        552,
        594,
        31,
        279,
        321,
        666,
        407,
        488,
        550,
        150,
        189,
        599,
        64,
        402,
        58,
        637,
        112,
        85,
        475,
        166,
        582,
        598,
        339,
        275,
        471,
        397,
        673,
        351,
        256,
        4,
        312,
        73,
        608,
        603,
        151,
        183,
        61,
        389,
        368,
        24,
        98,
        354,
        467,
        621,
        600,
        514,
        500,
        408,
        165,
        70,
        515,
        79,
        457,
        410,
        423,
        512,
        519,
        74,
        727,
        614,
        136,
        580,
        622,
        708,
        296,
        469,
        564,
        127,
        570,
        393,
        511,
        420,
        12,
        208,
        625,
        464,
        285,
        418,
        132,
        730,
        701,
        284,
        332,
        702,
        559,
        149,
        692,
        518,
        482,
        604,
        735,
        466,
        314,
        344,
        462,
        713,
        665,
        567,
        252,
        257,
        572,
        362,
        648,
        413,
        223,
        468,
        736,
        15,
        34,
        54,
        587,
        50,
        177,
        228,
        304,
        707,
        568,
        338,
        340,
        620,
        677,
        115,
        629,
        268,
        273,
        253,
        434,
        87,
        630,
        425,
        367,
        733,
        706,
        398,
        454,
        663,
        743,
        158,
        108,
        473,
        281,
        387,
        168,
        140,
        723,
        45,
        358,
        659,
        501,
        710,
        327,
        303,
        486,
        379,
        647,
        419,
        116,
        323,
        615,
        203,
        477,
        197,
        455,
        241,
        415,
        717,
        86,
        246,
        377,
        525,
        506,
        41,
        65,
        644,
        483,
        49,
        392,
        680,
        540,
        427,
        541,
        698,
        159,
        349,
        595,
        38,
        535,
        399,
        22,
        731,
        547,
        337,
        212,
        91,
        274,
        729,
        126,
        109,
        20,
        618,
        432,
        537,
        336,
        171,
        272,
        243,
        504,
        92,
        442,
        558,
        674,
        218,
        671,
        409,
        555,
        382,
        186,
        289,
        422,
        724,
        259,
        449,
        588,
        693,
        269,
        426,
        18,
        134,
        101,
        316,
        144,
        742,
        652,
        536,
        110,
        306,
        672,
        470,
        388,
        196,
        575,
        249,
        9,
        141,
        245,
        428,
        726,
        23,
        30,
        155,
        411,
        602,
        106,
        635,
        187,
        372,
        378,
        345,
        626,
        545,
        636,
        634,
        7,
        128,
        282,
        297,
        465,
        749,
        248,
        435,
        400,
        2,
        556,
        32,
        609,
        687,
        679,
        481,
        88,
        62,
        129,
        199,
        264,
        216,
        48,
        684,
        262,
        320,
        439,
        295,
        305,
        374,
        90,
        202,
        651,
        675,
        529,
        1,
        222,
        612,
        194,
        6,
        148,
        544,
        47,
        395,
        302,
        355,
        437,
        391,
        596,
        656,
        0,
        350,
        13,
        35,
        569,
        214,
        452,
        169,
        39,
        424,
        746,
        566,
        96,
        113,
        94,
        538,
        27,
        436,
        195,
        190,
        591,
        369,
        125,
        170,
        497,
        260,
        732,
        160,
        738,
        364,
        685,
        258,
        381,
        526,
        657,
        459,
        683,
        431,
        81,
        191,
        114,
        163,
        480,
        99,
        696,
        283,
        532,
        14,
        231,
        479,
        643,
        524,
        548,
        721,
        478,
        75,
        533,
        373,
        182,
        508,
        589,
        240,
        633,
        120,
        443,
        209,
        496,
        72,
        446,
        661,
        371,
        390,
        56,
        686,
        235,
        574,
        551,
        520,
        68,
        343,
        291,
        444,
        660,
        499,
        578,
        71,
        263,
        104,
        21,
        429,
        348,
        649,
        93,
        669,
        121,
        489,
        111,
        383,
        405,
        138,
        607,
        55,
        188,
        741,
        301,
        688,
        744,
        441,
        593,
        565,
        360,
        416,
        162,
        460,
        624
    ],
    "Global Optimum": 0,
    "Algorithm": "Genetic algorithm",
    "Parameters": {
        "population": 30,
        "offspring": 30,
        "mutation probability": 0.0013333333333333333,
        "crossover probability": 0.9
    },
    "Fitness": 983185,
    "Solution": [
        376,
        146,
        325,
        421,
        581,
        335,
        641,
        453,
        557,
        19,
        161,
        640,
        513,
        585,
        394,
        734,
        670,
        220,
        639,
        653,
        691,
        185,
        361,
        3,
        748,
        5,
        143,
        131,
        59,
        509,
        498,
        654,
        627,
        681,
        606,
        123,
        52,
        646,
        145,
        745,
        523,
        130,
        334,
        192,
        628,
        406,
        714,
        17,
        103,
        678,
        176,
        322,
        167,
        461,
        25,
        703,
        313,
        271,
        76,
        78,
        227,
        704,
        356,
        33,
        517,
        617,
        117,
        69,
        363,
        474,
        502,
        154,
        528,
        616,
        697,
        244,
        740,
        632,
        401,
        667,
        700,
        690,
        503,
        549,
        583,
        403,
        380,
        319,
        10,
        254,
        133,
        242,
        330,
        366,
        333,
        102,
        234,
        605,
        562,
        215,
        531,
        326,
        664,
        359,
        357,
        84,
        352,
        579,
        576,
        450,
        8,
        573,
        539,
        37,
        623,
        530,
        107,
        346,
        236,
        492,
        156,
        43,
        458,
        440,
        288,
        546,
        152,
        584,
        67,
        560,
        613,
        83,
        718,
        396,
        184,
        42,
        719,
        89,
        491,
        251,
        211,
        200,
        298,
        299,
        11,
        46,
        534,
        280,
        495,
        571,
        142,
        137,
        554,
        217,
        135,
        347,
        278,
        53,
        433,
        294,
        317,
        577,
        300,
        315,
        728,
        543,
        448,
        225,
        695,
        63,
        213,
        233,
        82,
        487,
        286,
        266,
        239,
        219,
        682,
        198,
        417,
        226,
        493,
        178,
        384,
        694,
        255,
        597,
        205,
        610,
        522,
        173,
        385,
        430,
        51,
        172,
        206,
        507,
        668,
        553,
        293,
        174,
        221,
        310,
        181,
        267,
        164,
        370,
        290,
        292,
        77,
        699,
        329,
        601,
        592,
        645,
        438,
        375,
        456,
        494,
        247,
        179,
        747,
        705,
        287,
        153,
        331,
        586,
        36,
        561,
        510,
        709,
        638,
        118,
        265,
        122,
        66,
        590,
        712,
        277,
        711,
        95,
        658,
        40,
        147,
        689,
        204,
        80,
        521,
        715,
        26,
        250,
        238,
        655,
        642,
        193,
        308,
        447,
        175,
        722,
        463,
        716,
        276,
        386,
        662,
        311,
        57,
        309,
        725,
        720,
        739,
        105,
        44,
        476,
        353,
        412,
        207,
        404,
        676,
        60,
        527,
        619,
        201,
        484,
        490,
        230,
        472,
        737,
        237,
        232,
        270,
        563,
        307,
        611,
        342,
        414,
        97,
        516,
        318,
        124,
        139,
        505,
        365,
        261,
        445,
        485,
        210,
        650,
        224,
        180,
        324,
        631,
        119,
        451,
        542,
        341,
        328,
        100,
        229,
        29,
        157,
        28,
        16,
        552,
        594,
        31,
        279,
        321,
        666,
        407,
        488,
        550,
        150,
        189,
        599,
        64,
        402,
        58,
        637,
        112,
        85,
        475,
        166,
        582,
        598,
        339,
        275,
        471,
        397,
        673,
        351,
        256,
        4,
        312,
        73,
        608,
        603,
        151,
        183,
        61,
        389,
        368,
        24,
        98,
        354,
        467,
        621,
        600,
        514,
        500,
        408,
        165,
        70,
        515,
        79,
        457,
        410,
        423,
        512,
        519,
        74,
        727,
        614,
        136,
        580,
        622,
        708,
        296,
        469,
        564,
        127,
        570,
        393,
        511,
        420,
        12,
        208,
        625,
        464,
        285,
        418,
        132,
        730,
        701,
        284,
        332,
        702,
        559,
        149,
        692,
        518,
        482,
        604,
        735,
        466,
        314,
        344,
        462,
        713,
        665,
        567,
        252,
        257,
        572,
        362,
        648,
        413,
        223,
        468,
        736,
        15,
        34,
        54,
        587,
        50,
        177,
        228,
        304,
        707,
        568,
        338,
        340,
        620,
        677,
        115,
        629,
        268,
        273,
        253,
        434,
        87,
        630,
        425,
        367,
        733,
        706,
        398,
        454,
        663,
        743,
        158,
        108,
        473,
        281,
        387,
        168,
        140,
        723,
        45,
        358,
        659,
        501,
        710,
        327,
        303,
        486,
        379,
        647,
        419,
        116,
        323,
        615,
        203,
        477,
        197,
        455,
        241,
        415,
        717,
        86,
        246,
        377,
        525,
        506,
        41,
        65,
        644,
        483,
        49,
        392,
        680,
        540,
        427,
        541,
        698,
        159,
        349,
        595,
        38,
        535,
        399,
        22,
        731,
        547,
        337,
        212,
        91,
        274,
        729,
        126,
        109,
        20,
        618,
        432,
        537,
        336,
        171,
        272,
        243,
        504,
        92,
        442,
        558,
        674,
        218,
        671,
        409,
        555,
        382,
        186,
        289,
        422,
        724,
        259,
        449,
        588,
        693,
        269,
        426,
        18,
        134,
        101,
        316,
        144,
        742,
        652,
        536,
        110,
        306,
        672,
        470,
        388,
        196,
        575,
        249,
        9,
        141,
        245,
        428,
        726,
        23,
        30,
        155,
        411,
        602,
        106,
        635,
        187,
        372,
        378,
        345,
        626,
        545,
        636,
        634,
        7,
        128,
        282,
        297,
        465,
        749,
        248,
        435,
        400,
        2,
        556,
        32,
        609,
        687,
        679,
        481,
        88,
        62,
        129,
        199,
        264,
        216,
        48,
        684,
        262,
        320,
        439,
        295,
        305,
        374,
        90,
        202,
        651,
        675,
        529,
        1,
        222,
        612,
        194,
        6,
        148,
        544,
        47,
        395,
        302,
        355,
        437,
        391,
        596,
        656,
        0,
        350,
        13,
        35,
        569,
        214,
        452,
        169,
        39,
        424,
        746,
        566,
        96,
        113,
        94,
        538,
        27,
        436,
        195,
        190,
        591,
        369,
        125,
        170,
        497,
        260,
        732,
        160,
        738,
        364,
        685,
        258,
        381,
        526,
        657,
        459,
        683,
        431,
        81,
        191,
        114,
        163,
        480,
        99,
        696,
        283,
        532,
        14,
        231,
        479,
        643,
        524,
        548,
        721,
        478,
        75,
        533,
        373,
        182,
        508,
        589,
        240,
        633,
        120,
        443,
        209,
        496,
        72,
        446,
        661,
        371,
        390,
        56,
        686,
        235,
        574,
        551,
        520,
        68,
        343,
        291,
        444,
        660,
        499,
        578,
        71,
        263,
        104,
        21,
        429,
        348,
        649,
        93,
        669,
        121,
        489,
        111,
        383,
        405,
        138,
        607,
        55,
        188,
        741,
        301,
        688,
        744,
        441,
        593,
        565,
        360,
        416,
        162,
        460,
        624
    ],
    "Nb of functions evaluations": 50010,
    "Computational time in seconds": 849.6504199504852,
    "Stopping criterion in evaluations": 50000
}